
<<< setup

Tried aggregator 1 time.
LP Presolve eliminated 115 rows and 83 columns.
Reduced LP has 2 rows, 18 columns, and 18 nonzeros.
Presolve time = 0.00 sec. (0.04 ticks)

Iteration log . . .
Iteration:     1   Dual objective     =          1589.668188
main returns 0

<<< main


<<< done

